
Gurobi 6.0.4 (win64) logging started 06/20/15 12:51:05

Read LP format model from file C:\MT\repository\VRPTWMS\instances\mip\fuel\N12-C_DV100-C_SV30_F6_5_No_1.lp
Reading time = 0.02 seconds
(null): 865 rows, 392 columns, 3639 nonzeros
Optimize a model with 865 rows, 392 columns and 3639 nonzeros
Model has 1728 quadratic constraints
Coefficient statistics:
  Matrix range    [1e+00, 1e+06]
  Objective range [1e+04, 1e+07]
  Bounds range    [1e+00, 1e+06]
  RHS range       [1e+00, 1e+06]
Presolve removed 85 rows and 41 columns
Presolve time: 0.83s
Presolved: 3928 rows, 1925 columns, 21130 nonzeros
Variable types: 1574 continuous, 351 integer (301 binary)
Found heuristic solution: objective 1.245484e+08

Root relaxation: objective 1.770145e+06, 200 iterations, 0.01 seconds

    Nodes    |    Current Node    |     Objective Bounds      |     Work
 Expl Unexpl |  Obj  Depth IntInf | Incumbent    BestBd   Gap | It/Node Time

     0     0 1770144.93    0   54 1.2455e+08 1770144.93  98.6%     -    0s
H    0     0                    9.322950e+07 1770144.93  98.1%     -    0s
     0     0 3268378.43    0   56 9.3230e+07 3268378.43  96.5%     -    0s
H    0     0                    8.360990e+07 3268378.43  96.1%     -    0s
H    0     0                    4.264560e+07 3268378.43  92.3%     -    0s
     0     0 8797103.30    0   57 4.2646e+07 8797103.30  79.4%     -    1s
     0     0 8877974.43    0   39 4.2646e+07 8877974.43  79.2%     -    1s
     0     0 8883066.67    0   40 4.2646e+07 8883066.67  79.2%     -    1s
     0     0 8899216.67    0   41 4.2646e+07 8899216.67  79.1%     -    1s
     0     0 8899216.67    0   41 4.2646e+07 8899216.67  79.1%     -    1s
     0     0 8899216.67    0   41 4.2646e+07 8899216.67  79.1%     -    1s
     0     2 8899216.67    0   39 4.2646e+07 8899216.67  79.1%     -    1s
H  252   173                    4.247200e+07 1.2269e+07  71.1%  20.3    1s
   756   434 2.2145e+07   16   69 4.2472e+07 2.2145e+07  47.9%  18.0    5s
H  756   412                    4.246470e+07 2.2147e+07  47.8%  18.0    5s
H  931   424                    3.248760e+07 2.2168e+07  31.8%  20.7    7s
* 1143   423              26    3.244750e+07 2.2206e+07  31.6%  20.4    8s
H 1186   394                    3.236270e+07 2.2210e+07  31.4%  20.4    8s
* 1236   371              20    3.221330e+07 2.2218e+07  31.0%  21.0    8s
* 1265   358              28    3.221250e+07 2.2218e+07  31.0%  21.2    8s
  1734   339     cutoff   32      3.2213e+07 2.2273e+07  30.9%  23.9   10s
  3101   496 2.2437e+07   25   44 3.2213e+07 2.2426e+07  30.4%  27.6   15s
  4390   298 2.2807e+07   29   41 3.2213e+07 2.2611e+07  29.8%  31.4   20s

Cutting planes:
  Learned: 2
  Gomory: 9
  Cover: 165
  Implied bound: 115
  Clique: 11
  MIR: 17
  Flow cover: 89
  GUB cover: 18
  Zero half: 45

Explored 4993 nodes (162294 simplex iterations) in 22.10 seconds
Thread count was 2 (of 4 available processors)

Optimal solution found (tolerance 1.00e-04)
Best objective 3.221250000000e+07, best bound 3.221250000000e+07, gap 0.0%
k_c1	970000.0000000002
k_c10	1000000.0000000001
k_c11	960000.0000000002
k_c12	850000.0000000001
k_c2	890000.0000000001
k_c3	1000000.0
k_c4	930000.0
k_c5	840000.0000000002
k_c6	950000.0000000001
k_c7	920000.0000000002
k_c8	980000.0
k_c9	1000000.0
k_dN	-0.0
o_1	0.0
o_10	-0.0
o_11	0.0
o_12	-0.0
o_2	-0.0
o_3	-0.0
o_4	-0.0
o_5	-0.0
o_6	-0.0
o_7	-0.0
o_8	-0.0
o_9	-0.0
p_1	0.0
p_10	0.0
p_11	0.0
p_12	0.0
p_2	0.0
p_3	0.0
p_4	0.0
p_5	0.0
p_6	0.0
p_7	0.0
p_8	-0.0
p_9	-0.0
phi_c1	38538.0
phi_c10	42551.99999999997
phi_c11	35781.999999999985
phi_c12	6168.000000000015
phi_c2	13560.000000000015
phi_c3	40839.99999999997
phi_c4	669.0
phi_c5	14982.999999999985
phi_c6	39341.00000000003
phi_c7	27318.999999999985
phi_c8	20117.0
phi_c9	33363.0
phi_d0	60000.0
phi_dN	-0.0
tauD_c1	250000.0
tauD_c10	204999.99999999994
tauD_c11	588200.0
tauD_c12	777625.0
tauD_c2	650000.0
tauD_c3	71600.0
tauD_c4	323675.0
tauD_c5	815925.0
tauD_c6	200000.0
tauD_c7	699825.0
tauD_c8	191000.0
tauD_c9	21500.0
tauD_d0	-0.0
tauD_dN	1000000.0
tauS_c1	864950.0
tauS_c10	852675.0
tauS_c11	868525.0
tauS_c12	896949.9999999999
tauS_c2	869450.0
tauS_c3	841449.9999999999
tauS_c4	-0.0
tauS_c5	864500.0
tauS_c6	844974.9999999999
tauS_c7	30099.999999999884
tauS_c8	847325.0
tauS_c9	896425.0
tauS_d0	-0.0
tauS_dN	1000000.0
x_c10_c1	1.0
x_c11_c7	1.0
x_c12_dN	1.0
x_c1_c11	1.0
x_c2_c12	1.0
x_c3_c6	0.999999999999999
x_c4_dN	1.0
x_c5_dN	1.0
x_c6_c2	1.0
x_c7_c5	1.0
x_c8_c4	1.0
x_c9_c8	1.0
x_d0_c10	1.0
x_d0_c3	1.0
x_d0_c9	1.0
